data/OOEBPP/R1000/BPP_1000_120_0.1_0.8_7.txt.ins
1000
120 120
1 96 377
2 96 496
3 96 383
4 96 388
5 96 488
6 96 813
7 96 50
8 96 664
9 96 37
10 96 318
11 95 663
12 95 175
13 95 554
14 95 908
15 95 418
16 95 348
17 95 593
18 95 125
19 95 713
20 95 481
21 95 567
22 95 135
23 94 392
24 94 763
25 94 148
26 94 760
27 94 690
28 94 901
29 94 228
30 94 420
31 94 797
32 94 828
33 94 100
34 94 136
35 94 154
36 94 643
37 93 49
38 93 284
39 93 922
40 93 352
41 93 640
42 93 386
43 93 789
44 93 672
45 93 724
46 93 634
47 93 796
48 92 497
49 92 854
50 92 953
51 92 503
52 92 709
53 92 590
54 92 340
55 92 255
56 92 761
57 92 657
58 92 373
59 92 330
60 92 638
61 92 395
62 92 177
63 91 30
64 91 594
65 91 669
66 91 214
67 91 758
68 91 606
69 91 641
70 91 72
71 91 315
72 91 814
73 91 95
74 91 167
75 91 798
76 91 929
77 91 125
78 91 589
79 91 987
80 90 453
81 90 669
82 90 436
83 90 63
84 90 595
85 90 389
86 90 932
87 89 441
88 89 716
89 89 878
90 89 737
91 89 217
92 89 343
93 89 968
94 89 528
95 89 674
96 89 649
97 89 765
98 89 928
99 89 660
100 89 804
101 89 106
102 89 568
103 89 736
104 88 874
105 88 199
106 88 324
107 88 227
108 88 797
109 88 207
110 88 567
111 88 960
112 88 8
113 88 177
114 87 684
115 87 804
116 87 25
117 87 552
118 87 520
119 87 245
120 87 398
121 87 577
122 87 231
123 87 629
124 86 890
125 86 168
126 86 422
127 86 524
128 86 553
129 86 703
130 86 279
131 86 605
132 86 145
133 85 435
134 85 411
135 85 896
136 85 692
137 85 202
138 85 460
139 85 282
140 85 821
141 85 934
142 85 804
143 85 310
144 85 406
145 85 365
146 85 47
147 84 285
148 84 426
149 84 572
150 84 866
151 84 204
152 84 196
153 84 713
154 84 57
155 84 280
156 84 151
157 84 14
158 83 322
159 83 860
160 83 361
161 83 137
162 83 690
163 83 159
164 83 382
165 83 308
166 83 627
167 83 833
168 83 172
169 83 562
170 83 826
171 83 251
172 83 34
173 83 336
174 83 679
175 83 203
176 83 881
177 83 457
178 83 711
179 82 417
180 82 624
181 82 141
182 82 886
183 82 106
184 82 606
185 82 722
186 82 583
187 82 899
188 82 729
189 81 440
190 81 131
191 81 845
192 81 476
193 81 48
194 81 886
195 81 850
196 81 340
197 81 200
198 81 480
199 80 622
200 80 415
201 80 874
202 80 833
203 80 671
204 80 998
205 80 11
206 80 882
207 80 727
208 80 936
209 80 764
210 80 186
211 80 584
212 79 942
213 79 236
214 79 154
215 79 203
216 79 230
217 79 207
218 79 701
219 79 174
220 79 324
221 79 696
222 79 407
223 79 189
224 79 681
225 79 312
226 78 214
227 78 109
228 78 994
229 78 955
230 78 490
231 78 151
232 78 569
233 78 842
234 78 529
235 78 15
236 78 358
237 78 392
238 78 815
239 78 669
240 78 965
241 78 153
242 77 497
243 77 734
244 77 303
245 77 793
246 77 902
247 77 245
248 77 754
249 77 401
250 77 69
251 77 102
252 77 808
253 77 227
254 77 997
255 77 615
256 77 534
257 76 635
258 76 390
259 76 109
260 76 364
261 76 683
262 76 53
263 76 35
264 76 674
265 76 509
266 76 799
267 76 519
268 76 278
269 76 401
270 76 308
271 76 713
272 76 28
273 76 477
274 75 523
275 75 211
276 75 914
277 75 561
278 75 585
279 75 483
280 75 362
281 75 857
282 75 595
283 74 935
284 74 279
285 74 175
286 74 712
287 74 642
288 74 601
289 74 13
290 74 249
291 74 368
292 74 171
293 74 509
294 74 578
295 73 887
296 73 120
297 73 670
298 73 86
299 73 515
300 73 422
301 73 519
302 73 190
303 73 415
304 73 752
305 73 103
306 73 623
307 73 675
308 73 527
309 73 350
310 73 483
311 73 696
312 73 351
313 72 671
314 72 585
315 72 858
316 72 911
317 72 178
318 72 19
319 72 870
320 72 744
321 72 59
322 72 583
323 72 380
324 72 935
325 72 995
326 72 47
327 71 334
328 71 117
329 71 813
330 71 983
331 71 545
332 71 744
333 71 107
334 71 890
335 71 310
336 71 641
337 71 839
338 71 645
339 70 927
340 70 700
341 70 791
342 70 928
343 70 332
344 70 710
345 70 699
346 70 345
347 70 552
348 69 499
349 69 202
350 69 817
351 69 330
352 69 971
353 69 329
354 69 382
355 69 807
356 69 899
357 68 773
358 68 335
359 68 809
360 68 828
361 68 279
362 68 666
363 68 240
364 68 676
365 68 993
366 68 989
367 67 538
368 67 261
369 67 920
370 67 379
371 67 382
372 67 403
373 67 824
374 67 946
375 67 0
376 67 844
377 67 320
378 67 567
379 67 891
380 67 322
381 67 634
382 67 366
383 67 863
384 67 659
385 66 540
386 66 620
387 66 706
388 66 868
389 66 430
390 66 172
391 66 560
392 66 919
393 66 83
394 66 181
395 66 829
396 66 937
397 65 859
398 65 45
399 65 880
400 65 507
401 65 974
402 65 9
403 65 254
404 65 606
405 65 808
406 65 903
407 65 332
408 64 366
409 64 962
410 64 225
411 64 646
412 64 47
413 64 419
414 64 10
415 64 877
416 64 608
417 64 411
418 64 634
419 64 77
420 64 322
421 64 985
422 64 901
423 63 601
424 63 540
425 63 729
426 63 9
427 63 343
428 63 427
429 63 306
430 63 781
431 63 352
432 63 810
433 62 647
434 62 979
435 62 398
436 62 153
437 62 156
438 62 950
439 62 985
440 62 290
441 62 357
442 62 263
443 62 437
444 62 667
445 62 468
446 62 798
447 62 9
448 61 102
449 61 84
450 61 249
451 61 842
452 61 296
453 61 228
454 61 236
455 60 478
456 60 988
457 60 413
458 60 44
459 60 833
460 60 705
461 60 6
462 60 175
463 60 303
464 60 315
465 59 513
466 59 25
467 59 476
468 59 322
469 59 313
470 59 27
471 59 943
472 59 818
473 59 117
474 59 696
475 58 733
476 58 530
477 58 529
478 58 561
479 58 733
480 58 698
481 58 999
482 58 709
483 58 83
484 58 697
485 58 516
486 58 880
487 58 409
488 57 805
489 57 762
490 57 942
491 57 683
492 57 752
493 57 109
494 57 789
495 57 860
496 57 524
497 57 448
498 57 27
499 56 564
500 56 852
501 56 874
502 56 80
503 56 73
504 56 581
505 56 332
506 56 591
507 56 990
508 56 44
509 56 62
510 56 704
511 55 620
512 55 448
513 55 78
514 55 112
515 55 576
516 55 836
517 55 423
518 55 487
519 54 241
520 54 467
521 54 175
522 54 433
523 54 238
524 54 665
525 54 754
526 54 71
527 54 351
528 54 205
529 53 548
530 53 873
531 53 456
532 53 98
533 53 3
534 53 12
535 53 960
536 53 922
537 53 155
538 53 970
539 53 649
540 52 425
541 52 626
542 52 369
543 52 674
544 52 561
545 52 180
546 52 984
547 52 620
548 52 541
549 51 387
550 51 553
551 51 510
552 51 307
553 51 685
554 51 70
555 51 400
556 51 143
557 50 379
558 50 884
559 50 110
560 50 42
561 50 611
562 50 297
563 50 638
564 50 136
565 50 776
566 50 719
567 50 573
568 50 543
569 50 6
570 50 615
571 50 36
572 50 651
573 49 991
574 49 917
575 49 829
576 49 240
577 49 628
578 49 923
579 49 779
580 49 166
581 49 40
582 49 625
583 49 2
584 49 303
585 49 109
586 49 618
587 49 168
588 49 7
589 49 971
590 48 479
591 48 171
592 48 948
593 48 562
594 48 998
595 48 874
596 48 256
597 48 258
598 48 478
599 48 696
600 48 920
601 48 129
602 48 115
603 47 797
604 47 762
605 47 510
606 47 525
607 47 440
608 47 653
609 47 447
610 47 455
611 47 850
612 46 977
613 46 319
614 46 893
615 46 66
616 46 208
617 46 778
618 46 154
619 46 636
620 46 604
621 46 987
622 46 583
623 46 255
624 45 170
625 45 104
626 45 386
627 45 110
628 45 721
629 45 899
630 45 14
631 45 764
632 45 469
633 44 637
634 44 154
635 44 786
636 44 141
637 44 711
638 44 500
639 44 683
640 44 230
641 44 449
642 44 530
643 44 980
644 44 379
645 44 353
646 43 622
647 43 240
648 43 944
649 43 535
650 43 838
651 43 158
652 43 611
653 43 548
654 43 275
655 43 332
656 43 48
657 43 272
658 43 932
659 42 416
660 42 520
661 42 404
662 42 335
663 42 784
664 42 437
665 42 782
666 42 343
667 42 568
668 42 536
669 42 321
670 42 986
671 42 577
672 42 275
673 42 307
674 42 485
675 42 813
676 41 641
677 41 948
678 41 122
679 41 328
680 41 363
681 41 911
682 41 149
683 40 490
684 40 443
685 40 776
686 40 622
687 40 994
688 40 728
689 40 297
690 40 786
691 40 79
692 40 302
693 40 560
694 40 407
695 40 703
696 39 428
697 39 712
698 39 662
699 39 360
700 39 85
701 39 296
702 39 165
703 39 276
704 39 134
705 39 233
706 39 12
707 38 738
708 38 577
709 38 650
710 38 848
711 38 348
712 37 614
713 37 113
714 37 569
715 37 836
716 37 349
717 37 881
718 37 472
719 37 99
720 37 954
721 37 283
722 36 635
723 36 988
724 36 374
725 36 585
726 36 396
727 36 521
728 36 621
729 36 537
730 36 236
731 36 526
732 36 350
733 36 590
734 36 664
735 36 942
736 36 480
737 35 748
738 35 947
739 35 226
740 35 946
741 35 362
742 35 483
743 35 927
744 35 189
745 35 838
746 35 239
747 35 355
748 35 587
749 35 3
750 35 110
751 35 634
752 35 440
753 35 396
754 35 700
755 34 708
756 34 532
757 34 845
758 34 248
759 34 312
760 34 792
761 34 616
762 33 366
763 33 600
764 33 754
765 33 785
766 33 997
767 33 21
768 33 954
769 33 55
770 33 639
771 33 517
772 33 876
773 33 355
774 33 81
775 33 162
776 33 675
777 33 734
778 33 122
779 33 871
780 32 934
781 32 33
782 32 989
783 32 552
784 32 972
785 32 406
786 32 337
787 32 744
788 32 252
789 32 854
790 32 250
791 32 755
792 32 463
793 32 201
794 32 373
795 31 553
796 31 540
797 31 848
798 31 934
799 31 664
800 31 242
801 31 840
802 31 405
803 31 227
804 31 92
805 31 54
806 31 725
807 31 872
808 31 226
809 30 295
810 30 324
811 30 336
812 30 314
813 30 406
814 30 651
815 30 172
816 30 437
817 30 658
818 30 285
819 30 199
820 30 797
821 30 971
822 30 261
823 30 17
824 30 233
825 30 58
826 30 765
827 30 92
828 30 774
829 29 645
830 29 998
831 29 428
832 29 746
833 29 475
834 29 60
835 29 143
836 29 905
837 29 93
838 29 290
839 29 809
840 29 278
841 29 876
842 29 821
843 29 840
844 29 885
845 28 471
846 28 584
847 28 396
848 28 146
849 28 673
850 28 277
851 28 566
852 28 924
853 28 359
854 28 855
855 27 858
856 27 476
857 27 577
858 27 330
859 27 667
860 27 927
861 27 140
862 26 382
863 26 504
864 26 585
865 26 29
866 26 366
867 26 379
868 26 491
869 26 385
870 26 945
871 25 913
872 25 938
873 25 945
874 25 298
875 25 41
876 25 880
877 25 763
878 25 299
879 25 101
880 25 362
881 24 736
882 24 446
883 24 52
884 24 277
885 24 300
886 24 247
887 24 934
888 23 620
889 23 23
890 23 262
891 23 431
892 23 277
893 22 187
894 22 141
895 22 46
896 22 26
897 22 435
898 22 319
899 22 748
900 22 837
901 22 136
902 22 853
903 22 254
904 22 156
905 21 145
906 21 560
907 21 981
908 21 684
909 21 504
910 20 262
911 20 984
912 20 363
913 20 303
914 20 958
915 20 521
916 20 870
917 20 684
918 19 926
919 19 676
920 19 525
921 19 940
922 19 230
923 19 12
924 19 427
925 19 467
926 19 823
927 19 765
928 18 758
929 18 648
930 18 597
931 18 282
932 18 530
933 18 441
934 18 423
935 18 412
936 18 71
937 18 693
938 18 336
939 17 829
940 17 380
941 17 857
942 17 419
943 17 588
944 17 632
945 17 742
946 17 943
947 17 778
948 17 839
949 17 700
950 17 239
951 17 216
952 17 58
953 17 426
954 17 950
955 16 840
956 16 118
957 16 800
958 16 536
959 16 149
960 16 119
961 16 977
962 16 784
963 16 919
964 16 964
965 16 549
966 16 690
967 15 447
968 15 347
969 15 288
970 15 866
971 15 252
972 15 832
973 15 457
974 15 188
975 14 313
976 14 177
977 14 724
978 14 563
979 14 53
980 14 872
981 13 397
982 13 285
983 13 294
984 13 495
985 13 682
986 13 359
987 13 798
988 13 111
989 13 955
990 13 305
991 13 61
992 12 790
993 12 470
994 12 147
995 12 265
996 12 332
997 12 347
998 12 781
999 12 338
1000 12 234
