results/OOEBPP/BPP_1000_120_0.1_0.8_7.txt.ins.log
273,272.944,121.485,OPT,11618,0,0,AI,0,0.0549451,3.20513,0.961868,119.041,0,2,0,137,132
